language Essence 1.3

letting can_fly be
        relation((1, 3), (1, 8), (1, 9), (1, 11), (1, 12), (1, 14), (1, 18), (1, 20), (1, 22), (1, 25), (1, 26),
                 (1, 27), (1, 28), (1, 29), (1, 30), (1, 31), (1, 33), (1, 34), (2, 1), (2, 2), (2, 3), (2, 4), (2, 5),
                 (2, 6), (2, 7), (2, 8), (2, 9), (2, 10), (2, 13), (2, 14), (2, 15), (2, 17), (2, 18), (2, 22), (2, 23),
                 (2, 25), (2, 27), (2, 31), (2, 32), (2, 34), (3, 2), (3, 3), (3, 4), (3, 6), (3, 7), (3, 9), (3, 11),
                 (3, 12), (3, 13), (3, 14), (3, 18), (3, 19), (3, 22), (3, 23), (3, 25), (3, 26), (3, 27), (3, 28),
                 (3, 29), (3, 31), (3, 32), (3, 33), (4, 1), (4, 2), (4, 3), (4, 4), (4, 5), (4, 6), (4, 7), (4, 8),
                 (4, 10), (4, 14), (4, 18), (4, 19), (4, 25), (4, 28), (4, 29), (4, 30), (4, 31), (4, 32), (4, 34),
                 (5, 2), (5, 3), (5, 6), (5, 7), (5, 8), (5, 9), (5, 11), (5, 12), (5, 14), (5, 16), (5, 17), (5, 19),
                 (5, 20), (5, 22), (5, 25), (5, 26), (5, 27), (5, 28), (5, 29), (5, 30), (5, 31), (5, 32), (5, 33),
                 (6, 2), (6, 5), (6, 7), (6, 8), (6, 9), (6, 10), (6, 12), (6, 14), (6, 17), (6, 24), (6, 25), (6, 27),
                 (6, 29), (6, 33), (7, 1), (7, 2), (7, 3), (7, 5), (7, 6), (7, 7), (7, 9), (7, 11), (7, 13), (7, 14),
                 (7, 15), (7, 16), (7, 18), (7, 19), (7, 22), (7, 23), (7, 25), (7, 27), (7, 28), (7, 30), (7, 32),
                 (8, 3), (8, 4), (8, 5), (8, 10), (8, 11), (8, 13), (8, 14), (8, 15), (8, 19), (8, 21), (8, 22),
                 (8, 23), (8, 25), (8, 29), (8, 30), (8, 31), (8, 33), (8, 34), (9, 1), (9, 4), (9, 5), (9, 8), (9, 9),
                 (9, 10), (9, 11), (9, 12), (9, 13), (9, 15), (9, 16), (9, 18), (9, 23), (9, 27), (9, 29), (9, 30),
                 (9, 31), (9, 33), (9, 34), (10, 3), (10, 5), (10, 7), (10, 8), (10, 10), (10, 11), (10, 12), (10, 13),
                 (10, 14), (10, 17), (10, 18), (10, 19), (10, 20), (10, 21), (10, 23), (10, 25), (10, 27), (10, 29),
                 (10, 30), (10, 32), (10, 33), (11, 2), (11, 5), (11, 7), (11, 8), (11, 9), (11, 10), (11, 11),
                 (11, 13), (11, 14), (11, 16), (11, 17), (11, 18), (11, 22), (11, 23), (11, 24), (11, 25), (11, 26),
                 (11, 28), (11, 29), (11, 30), (11, 31), (11, 32), (11, 33), (11, 34), (12, 1), (12, 2), (12, 3),
                 (12, 4), (12, 5), (12, 6), (12, 8), (12, 9), (12, 10), (12, 11), (12, 12), (12, 20), (12, 21),
                 (12, 23), (12, 25), (12, 26), (12, 27), (12, 28), (12, 29), (12, 30), (12, 31), (12, 32), (12, 34),
                 (13, 2), (13, 5), (13, 6), (13, 9), (13, 11), (13, 15), (13, 16), (13, 17), (13, 21), (13, 22),
                 (13, 23), (13, 26), (13, 30), (13, 33), (14, 1), (14, 2), (14, 4), (14, 5), (14, 6), (14, 7), (14, 9),
                 (14, 10), (14, 12), (14, 16), (14, 19), (14, 20), (14, 21), (14, 23), (14, 24), (14, 25), (14, 26),
                 (14, 27), (14, 31), (14, 32), (14, 33), (14, 34))
$ Visualisation for can_fly
$  1  3
$  1  8
$  1  9
$  1 11
$  1 12
$  1 14
$  1 18
$  1 20
$  1 22
$  1 25
$  1 26
$  1 27
$  1 28
$  1 29
$  1 30
$  1 31
$  1 33
$  1 34
$  2  1
$  2  2
$  2  3
$  2  4
$  2  5
$  2  6
$  2  7
$  2  8
$  2  9
$  2 10
$  2 13
$  2 14
$  2 15
$  2 17
$  2 18
$  2 22
$  2 23
$  2 25
$  2 27
$  2 31
$  2 32
$  2 34
$  3  2
$  3  3
$  3  4
$  3  6
$  3  7
$  3  9
$  3 11
$  3 12
$  3 13
$  3 14
$  3 18
$  3 19
$  3 22
$  3 23
$  3 25
$  3 26
$  3 27
$  3 28
$  3 29
$  3 31
$  3 32
$  3 33
$  4  1
$  4  2
$  4  3
$  4  4
$  4  5
$  4  6
$  4  7
$  4  8
$  4 10
$  4 14
$  4 18
$  4 19
$  4 25
$  4 28
$  4 29
$  4 30
$  4 31
$  4 32
$  4 34
$  5  2
$  5  3
$  5  6
$  5  7
$  5  8
$  5  9
$  5 11
$  5 12
$  5 14
$  5 16
$  5 17
$  5 19
$  5 20
$  5 22
$  5 25
$  5 26
$  5 27
$  5 28
$  5 29
$  5 30
$  5 31
$  5 32
$  5 33
$  6  2
$  6  5
$  6  7
$  6  8
$  6  9
$  6 10
$  6 12
$  6 14
$  6 17
$  6 24
$  6 25
$  6 27
$  6 29
$  6 33
$  7  1
$  7  2
$  7  3
$  7  5
$  7  6
$  7  7
$  7  9
$  7 11
$  7 13
$  7 14
$  7 15
$  7 16
$  7 18
$  7 19
$  7 22
$  7 23
$  7 25
$  7 27
$  7 28
$  7 30
$  7 32
$  8  3
$  8  4
$  8  5
$  8 10
$  8 11
$  8 13
$  8 14
$  8 15
$  8 19
$  8 21
$  8 22
$  8 23
$  8 25
$  8 29
$  8 30
$  8 31
$  8 33
$  8 34
$  9  1
$  9  4
$  9  5
$  9  8
$  9  9
$  9 10
$  9 11
$  9 12
$  9 13
$  9 15
$  9 16
$  9 18
$  9 23
$  9 27
$  9 29
$  9 30
$  9 31
$  9 33
$  9 34
$ 10  3
$ 10  5
$ 10  7
$ 10  8
$ 10 10
$ 10 11
$ 10 12
$ 10 13
$ 10 14
$ 10 17
$ 10 18
$ 10 19
$ 10 20
$ 10 21
$ 10 23
$ 10 25
$ 10 27
$ 10 29
$ 10 30
$ 10 32
$ 10 33
$ 11  2
$ 11  5
$ 11  7
$ 11  8
$ 11  9
$ 11 10
$ 11 11
$ 11 13
$ 11 14
$ 11 16
$ 11 17
$ 11 18
$ 11 22
$ 11 23
$ 11 24
$ 11 25
$ 11 26
$ 11 28
$ 11 29
$ 11 30
$ 11 31
$ 11 32
$ 11 33
$ 11 34
$ 12  1
$ 12  2
$ 12  3
$ 12  4
$ 12  5
$ 12  6
$ 12  8
$ 12  9
$ 12 10
$ 12 11
$ 12 12
$ 12 20
$ 12 21
$ 12 23
$ 12 25
$ 12 26
$ 12 27
$ 12 28
$ 12 29
$ 12 30
$ 12 31
$ 12 32
$ 12 34
$ 13  2
$ 13  5
$ 13  6
$ 13  9
$ 13 11
$ 13 15
$ 13 16
$ 13 17
$ 13 21
$ 13 22
$ 13 23
$ 13 26
$ 13 30
$ 13 33
$ 14  1
$ 14  2
$ 14  4
$ 14  5
$ 14  6
$ 14  7
$ 14  9
$ 14 10
$ 14 12
$ 14 16
$ 14 19
$ 14 20
$ 14 21
$ 14 23
$ 14 24
$ 14 25
$ 14 26
$ 14 27
$ 14 31
$ 14 32
$ 14 33
$ 14 34

letting carry_in be
        function(1 --> 6, 2 --> 10, 3 --> 12, 4 --> 34, 5 --> 11, 6 --> 26, 7 --> 14, 8 --> 28, 9 --> 19, 10 --> 29,
                 11 --> 31, 12 --> 30, 13 --> 7, 14 --> 20)
letting maint be {2, 3, 4, 5, 7, 9, 10, 11, 12, 13, 15, 18, 21, 22, 24, 25, 29, 30, 33, 34}
letting maint_freq be 5
letting n_flights be 34
letting n_planes be 14
letting network be
        relation((1, 2), (1, 3), (1, 5), (1, 6), (1, 7), (1, 13), (1, 14), (1, 15), (1, 16), (1, 17), (1, 19), (1, 20),
                 (1, 22), (1, 23), (1, 26), (1, 27), (1, 28), (1, 30), (1, 32), (2, 1), (2, 2), (2, 3), (2, 5), (2, 6),
                 (2, 8), (2, 12), (2, 18), (2, 20), (2, 24), (2, 25), (2, 26), (2, 27), (2, 28), (2, 31), (3, 2),
                 (3, 3), (3, 4), (3, 5), (3, 6), (3, 8), (3, 10), (3, 11), (3, 12), (3, 14), (3, 16), (3, 17), (3, 18),
                 (3, 20), (3, 22), (3, 23), (3, 24), (3, 25), (3, 26), (3, 27), (3, 28), (3, 30), (3, 32), (3, 34),
                 (4, 1), (4, 4), (4, 6), (4, 9), (4, 19), (4, 21), (4, 22), (4, 25), (4, 27), (4, 28), (4, 30), (4, 31),
                 (4, 32), (4, 33), (5, 2), (5, 3), (5, 10), (5, 11), (5, 13), (5, 14), (5, 15), (5, 17), (5, 21),
                 (5, 22), (5, 23), (5, 25), (5, 26), (5, 31), (5, 33), (6, 1), (6, 4), (6, 7), (6, 11), (6, 15),
                 (6, 17), (6, 19), (6, 21), (6, 23), (6, 27), (6, 28), (6, 30), (6, 33), (6, 34), (7, 5), (7, 6),
                 (7, 7), (7, 8), (7, 11), (7, 12), (7, 15), (7, 16), (7, 17), (7, 18), (7, 19), (7, 21), (7, 22),
                 (7, 25), (7, 26), (7, 27), (7, 28), (7, 29), (7, 30), (7, 31), (7, 32), (7, 33), (8, 2), (8, 4),
                 (8, 7), (8, 11), (8, 12), (8, 13), (8, 14), (8, 17), (8, 19), (8, 21), (8, 22), (8, 23), (8, 24),
                 (8, 26), (8, 29), (8, 31), (8, 33), (8, 34), (9, 1), (9, 2), (9, 4), (9, 5), (9, 7), (9, 11), (9, 17),
                 (9, 20), (9, 21), (9, 22), (9, 23), (9, 26), (9, 31), (10, 2), (10, 3), (10, 4), (10, 5), (10, 6),
                 (10, 7), (10, 8), (10, 11), (10, 12), (10, 14), (10, 15), (10, 20), (10, 22), (10, 23), (10, 24),
                 (10, 25), (10, 26), (10, 29), (10, 31), (10, 33), (10, 34), (11, 1), (11, 3), (11, 4), (11, 5),
                 (11, 7), (11, 8), (11, 10), (11, 12), (11, 15), (11, 16), (11, 17), (11, 18), (11, 20), (11, 21),
                 (11, 25), (11, 26), (11, 27), (11, 28), (11, 33), (11, 34), (12, 2), (12, 4), (12, 6), (12, 9),
                 (12, 10), (12, 13), (12, 15), (12, 16), (12, 17), (12, 22), (12, 26), (12, 27), (12, 28), (12, 32),
                 (12, 33), (13, 2), (13, 3), (13, 4), (13, 7), (13, 8), (13, 9), (13, 10), (13, 11), (13, 12), (13, 13),
                 (13, 14), (13, 17), (13, 18), (13, 20), (13, 21), (13, 22), (13, 27), (13, 28), (13, 30), (14, 1),
                 (14, 3), (14, 6), (14, 10), (14, 12), (14, 14), (14, 17), (14, 19), (14, 23), (14, 24), (14, 27),
                 (14, 28), (14, 29), (14, 32), (14, 33), (15, 2), (15, 7), (15, 10), (15, 12), (15, 15), (15, 16),
                 (15, 17), (15, 18), (15, 20), (15, 21), (15, 26), (15, 27), (15, 31), (15, 33), (15, 34), (16, 4),
                 (16, 6), (16, 7), (16, 9), (16, 10), (16, 15), (16, 17), (16, 18), (16, 19), (16, 20), (16, 21),
                 (16, 22), (16, 24), (16, 27), (16, 30), (16, 32), (16, 33), (17, 1), (17, 2), (17, 4), (17, 5),
                 (17, 6), (17, 9), (17, 17), (17, 18), (17, 22), (17, 24), (17, 27), (17, 31), (17, 33), (18, 1),
                 (18, 3), (18, 7), (18, 8), (18, 11), (18, 16), (18, 17), (18, 18), (18, 19), (18, 20), (18, 21),
                 (18, 22), (18, 24), (18, 25), (18, 26), (18, 27), (18, 28), (18, 29), (18, 31), (18, 33), (19, 1),
                 (19, 3), (19, 6), (19, 7), (19, 9), (19, 11), (19, 12), (19, 16), (19, 18), (19, 21), (19, 22),
                 (19, 29), (19, 30), (19, 31), (20, 1), (20, 2), (20, 3), (20, 5), (20, 6), (20, 8), (20, 11), (20, 13),
                 (20, 19), (20, 20), (20, 22), (20, 23), (20, 25), (20, 26), (20, 27), (20, 28), (20, 29), (20, 30),
                 (20, 31), (20, 32), (20, 33), (21, 2), (21, 3), (21, 4), (21, 6), (21, 7), (21, 9), (21, 11), (21, 12),
                 (21, 19), (21, 20), (21, 21), (21, 25), (21, 26), (21, 28), (21, 30), (21, 33), (21, 34), (22, 2),
                 (22, 3), (22, 5), (22, 6), (22, 10), (22, 11), (22, 12), (22, 14), (22, 15), (22, 16), (22, 17),
                 (22, 19), (22, 20), (22, 21), (22, 25), (22, 26), (22, 27), (22, 28), (22, 29), (22, 30), (22, 34),
                 (23, 2), (23, 3), (23, 9), (23, 10), (23, 11), (23, 12), (23, 13), (23, 14), (23, 15), (23, 16),
                 (23, 18), (23, 21), (23, 22), (23, 23), (23, 25), (23, 27), (23, 28), (23, 29), (23, 33), (23, 34),
                 (24, 1), (24, 8), (24, 10), (24, 12), (24, 13), (24, 15), (24, 17), (24, 19), (24, 20), (24, 22),
                 (24, 23), (24, 27), (24, 28), (24, 30), (24, 31), (24, 33), (24, 34), (25, 1), (25, 3), (25, 4),
                 (25, 7), (25, 8), (25, 9), (25, 10), (25, 11), (25, 13), (25, 14), (25, 15), (25, 16), (25, 17),
                 (25, 22), (25, 23), (25, 27), (25, 28), (25, 33), (25, 34), (26, 1), (26, 5), (26, 8), (26, 9),
                 (26, 11), (26, 12), (26, 14), (26, 15), (26, 16), (26, 18), (26, 23), (26, 26), (26, 28), (26, 29),
                 (26, 31), (26, 33), (27, 2), (27, 3), (27, 4), (27, 6), (27, 12), (27, 13), (27, 18), (27, 19),
                 (27, 20), (27, 22), (27, 23), (27, 27), (27, 28), (27, 31), (27, 32), (27, 33), (28, 1), (28, 3),
                 (28, 4), (28, 5), (28, 6), (28, 7), (28, 9), (28, 13), (28, 14), (28, 16), (28, 17), (28, 18),
                 (28, 19), (28, 21), (28, 22), (28, 24), (28, 25), (28, 26), (28, 27), (28, 28), (28, 29), (28, 30),
                 (28, 32), (29, 3), (29, 4), (29, 6), (29, 8), (29, 9), (29, 11), (29, 14), (29, 16), (29, 17),
                 (29, 18), (29, 19), (29, 20), (29, 21), (29, 22), (29, 23), (29, 24), (29, 26), (29, 27), (29, 29),
                 (29, 30), (29, 31), (29, 33), (29, 34), (30, 1), (30, 2), (30, 3), (30, 4), (30, 6), (30, 8), (30, 12),
                 (30, 13), (30, 14), (30, 16), (30, 18), (30, 21), (30, 22), (30, 23), (30, 24), (30, 26), (30, 27),
                 (30, 29), (30, 30), (30, 31), (30, 32), (30, 33), (30, 34), (31, 1), (31, 2), (31, 3), (31, 5),
                 (31, 6), (31, 11), (31, 13), (31, 15), (31, 16), (31, 17), (31, 18), (31, 19), (31, 25), (31, 26),
                 (31, 28), (31, 30), (31, 31), (31, 32), (31, 34), (32, 1), (32, 3), (32, 4), (32, 5), (32, 6), (32, 7),
                 (32, 8), (32, 13), (32, 15), (32, 18), (32, 19), (32, 23), (32, 24), (32, 25), (32, 28), (32, 30),
                 (32, 33), (33, 2), (33, 3), (33, 5), (33, 8), (33, 9), (33, 10), (33, 11), (33, 12), (33, 13),
                 (33, 16), (33, 19), (33, 20), (33, 24), (33, 25), (33, 28), (33, 29), (33, 31), (33, 33), (34, 1),
                 (34, 3), (34, 4), (34, 5), (34, 6), (34, 7), (34, 8), (34, 9), (34, 11), (34, 14), (34, 15), (34, 18),
                 (34, 21), (34, 23), (34, 24), (34, 25), (34, 28))
$ Visualisation for network
$  1  2
$  1  3
$  1  5
$  1  6
$  1  7
$  1 13
$  1 14
$  1 15
$  1 16
$  1 17
$  1 19
$  1 20
$  1 22
$  1 23
$  1 26
$  1 27
$  1 28
$  1 30
$  1 32
$  2  1
$  2  2
$  2  3
$  2  5
$  2  6
$  2  8
$  2 12
$  2 18
$  2 20
$  2 24
$  2 25
$  2 26
$  2 27
$  2 28
$  2 31
$  3  2
$  3  3
$  3  4
$  3  5
$  3  6
$  3  8
$  3 10
$  3 11
$  3 12
$  3 14
$  3 16
$  3 17
$  3 18
$  3 20
$  3 22
$  3 23
$  3 24
$  3 25
$  3 26
$  3 27
$  3 28
$  3 30
$  3 32
$  3 34
$  4  1
$  4  4
$  4  6
$  4  9
$  4 19
$  4 21
$  4 22
$  4 25
$  4 27
$  4 28
$  4 30
$  4 31
$  4 32
$  4 33
$  5  2
$  5  3
$  5 10
$  5 11
$  5 13
$  5 14
$  5 15
$  5 17
$  5 21
$  5 22
$  5 23
$  5 25
$  5 26
$  5 31
$  5 33
$  6  1
$  6  4
$  6  7
$  6 11
$  6 15
$  6 17
$  6 19
$  6 21
$  6 23
$  6 27
$  6 28
$  6 30
$  6 33
$  6 34
$  7  5
$  7  6
$  7  7
$  7  8
$  7 11
$  7 12
$  7 15
$  7 16
$  7 17
$  7 18
$  7 19
$  7 21
$  7 22
$  7 25
$  7 26
$  7 27
$  7 28
$  7 29
$  7 30
$  7 31
$  7 32
$  7 33
$  8  2
$  8  4
$  8  7
$  8 11
$  8 12
$  8 13
$  8 14
$  8 17
$  8 19
$  8 21
$  8 22
$  8 23
$  8 24
$  8 26
$  8 29
$  8 31
$  8 33
$  8 34
$  9  1
$  9  2
$  9  4
$  9  5
$  9  7
$  9 11
$  9 17
$  9 20
$  9 21
$  9 22
$  9 23
$  9 26
$  9 31
$ 10  2
$ 10  3
$ 10  4
$ 10  5
$ 10  6
$ 10  7
$ 10  8
$ 10 11
$ 10 12
$ 10 14
$ 10 15
$ 10 20
$ 10 22
$ 10 23
$ 10 24
$ 10 25
$ 10 26
$ 10 29
$ 10 31
$ 10 33
$ 10 34
$ 11  1
$ 11  3
$ 11  4
$ 11  5
$ 11  7
$ 11  8
$ 11 10
$ 11 12
$ 11 15
$ 11 16
$ 11 17
$ 11 18
$ 11 20
$ 11 21
$ 11 25
$ 11 26
$ 11 27
$ 11 28
$ 11 33
$ 11 34
$ 12  2
$ 12  4
$ 12  6
$ 12  9
$ 12 10
$ 12 13
$ 12 15
$ 12 16
$ 12 17
$ 12 22
$ 12 26
$ 12 27
$ 12 28
$ 12 32
$ 12 33
$ 13  2
$ 13  3
$ 13  4
$ 13  7
$ 13  8
$ 13  9
$ 13 10
$ 13 11
$ 13 12
$ 13 13
$ 13 14
$ 13 17
$ 13 18
$ 13 20
$ 13 21
$ 13 22
$ 13 27
$ 13 28
$ 13 30
$ 14  1
$ 14  3
$ 14  6
$ 14 10
$ 14 12
$ 14 14
$ 14 17
$ 14 19
$ 14 23
$ 14 24
$ 14 27
$ 14 28
$ 14 29
$ 14 32
$ 14 33
$ 15  2
$ 15  7
$ 15 10
$ 15 12
$ 15 15
$ 15 16
$ 15 17
$ 15 18
$ 15 20
$ 15 21
$ 15 26
$ 15 27
$ 15 31
$ 15 33
$ 15 34
$ 16  4
$ 16  6
$ 16  7
$ 16  9
$ 16 10
$ 16 15
$ 16 17
$ 16 18
$ 16 19
$ 16 20
$ 16 21
$ 16 22
$ 16 24
$ 16 27
$ 16 30
$ 16 32
$ 16 33
$ 17  1
$ 17  2
$ 17  4
$ 17  5
$ 17  6
$ 17  9
$ 17 17
$ 17 18
$ 17 22
$ 17 24
$ 17 27
$ 17 31
$ 17 33
$ 18  1
$ 18  3
$ 18  7
$ 18  8
$ 18 11
$ 18 16
$ 18 17
$ 18 18
$ 18 19
$ 18 20
$ 18 21
$ 18 22
$ 18 24
$ 18 25
$ 18 26
$ 18 27
$ 18 28
$ 18 29
$ 18 31
$ 18 33
$ 19  1
$ 19  3
$ 19  6
$ 19  7
$ 19  9
$ 19 11
$ 19 12
$ 19 16
$ 19 18
$ 19 21
$ 19 22
$ 19 29
$ 19 30
$ 19 31
$ 20  1
$ 20  2
$ 20  3
$ 20  5
$ 20  6
$ 20  8
$ 20 11
$ 20 13
$ 20 19
$ 20 20
$ 20 22
$ 20 23
$ 20 25
$ 20 26
$ 20 27
$ 20 28
$ 20 29
$ 20 30
$ 20 31
$ 20 32
$ 20 33
$ 21  2
$ 21  3
$ 21  4
$ 21  6
$ 21  7
$ 21  9
$ 21 11
$ 21 12
$ 21 19
$ 21 20
$ 21 21
$ 21 25
$ 21 26
$ 21 28
$ 21 30
$ 21 33
$ 21 34
$ 22  2
$ 22  3
$ 22  5
$ 22  6
$ 22 10
$ 22 11
$ 22 12
$ 22 14
$ 22 15
$ 22 16
$ 22 17
$ 22 19
$ 22 20
$ 22 21
$ 22 25
$ 22 26
$ 22 27
$ 22 28
$ 22 29
$ 22 30
$ 22 34
$ 23  2
$ 23  3
$ 23  9
$ 23 10
$ 23 11
$ 23 12
$ 23 13
$ 23 14
$ 23 15
$ 23 16
$ 23 18
$ 23 21
$ 23 22
$ 23 23
$ 23 25
$ 23 27
$ 23 28
$ 23 29
$ 23 33
$ 23 34
$ 24  1
$ 24  8
$ 24 10
$ 24 12
$ 24 13
$ 24 15
$ 24 17
$ 24 19
$ 24 20
$ 24 22
$ 24 23
$ 24 27
$ 24 28
$ 24 30
$ 24 31
$ 24 33
$ 24 34
$ 25  1
$ 25  3
$ 25  4
$ 25  7
$ 25  8
$ 25  9
$ 25 10
$ 25 11
$ 25 13
$ 25 14
$ 25 15
$ 25 16
$ 25 17
$ 25 22
$ 25 23
$ 25 27
$ 25 28
$ 25 33
$ 25 34
$ 26  1
$ 26  5
$ 26  8
$ 26  9
$ 26 11
$ 26 12
$ 26 14
$ 26 15
$ 26 16
$ 26 18
$ 26 23
$ 26 26
$ 26 28
$ 26 29
$ 26 31
$ 26 33
$ 27  2
$ 27  3
$ 27  4
$ 27  6
$ 27 12
$ 27 13
$ 27 18
$ 27 19
$ 27 20
$ 27 22
$ 27 23
$ 27 27
$ 27 28
$ 27 31
$ 27 32
$ 27 33
$ 28  1
$ 28  3
$ 28  4
$ 28  5
$ 28  6
$ 28  7
$ 28  9
$ 28 13
$ 28 14
$ 28 16
$ 28 17
$ 28 18
$ 28 19
$ 28 21
$ 28 22
$ 28 24
$ 28 25
$ 28 26
$ 28 27
$ 28 28
$ 28 29
$ 28 30
$ 28 32
$ 29  3
$ 29  4
$ 29  6
$ 29  8
$ 29  9
$ 29 11
$ 29 14
$ 29 16
$ 29 17
$ 29 18
$ 29 19
$ 29 20
$ 29 21
$ 29 22
$ 29 23
$ 29 24
$ 29 26
$ 29 27
$ 29 29
$ 29 30
$ 29 31
$ 29 33
$ 29 34
$ 30  1
$ 30  2
$ 30  3
$ 30  4
$ 30  6
$ 30  8
$ 30 12
$ 30 13
$ 30 14
$ 30 16
$ 30 18
$ 30 21
$ 30 22
$ 30 23
$ 30 24
$ 30 26
$ 30 27
$ 30 29
$ 30 30
$ 30 31
$ 30 32
$ 30 33
$ 30 34
$ 31  1
$ 31  2
$ 31  3
$ 31  5
$ 31  6
$ 31 11
$ 31 13
$ 31 15
$ 31 16
$ 31 17
$ 31 18
$ 31 19
$ 31 25
$ 31 26
$ 31 28
$ 31 30
$ 31 31
$ 31 32
$ 31 34
$ 32  1
$ 32  3
$ 32  4
$ 32  5
$ 32  6
$ 32  7
$ 32  8
$ 32 13
$ 32 15
$ 32 18
$ 32 19
$ 32 23
$ 32 24
$ 32 25
$ 32 28
$ 32 30
$ 32 33
$ 33  2
$ 33  3
$ 33  5
$ 33  8
$ 33  9
$ 33 10
$ 33 11
$ 33 12
$ 33 13
$ 33 16
$ 33 19
$ 33 20
$ 33 24
$ 33 25
$ 33 28
$ 33 29
$ 33 31
$ 33 33
$ 34  1
$ 34  3
$ 34  4
$ 34  5
$ 34  6
$ 34  7
$ 34  8
$ 34  9
$ 34 11
$ 34 14
$ 34 15
$ 34 18
$ 34 21
$ 34 23
$ 34 24
$ 34 25
$ 34 28

